NAME : grid
TYPE : TSP
DIMENSION : 50
EDGE_WEIGHT_TYPE : EUC_2D
NODE_COORD_SECTION
1 480352 234980
2 126369 274352
3 147517 346167
4 714461 119113
5 43722 506030
6 923385 768294
7 41007 631764
8 421459 746370
9 341841 934147
10 997152 886584
11 76187 307357
12 41283 782098
13 907147 815637
14 679655 510660
15 22304 586255
16 753165 161392
17 984881 917503
18 956525 750497
19 585996 158755
20 745492 223366
21 362789 923535
22 690064 360565
23 749279 359513
24 210532 125618
25 476945 837399
26 121561 450062
27 575572 445803
28 139901 111310
29 722624 367754
30 715560 45894
31 222364 734851
32 142046 398486
33 487448 471636
34 607630 414084
35 679028 982021
36 904465 183209
37 644130 857351
38 731418 101086
39 14185 326380
40 105852 179052
41 540637 58713
42 1993 934749
43 590147 296927
44 903566 176188
45 495410 538601
46 6297 370447
47 42814 319552
48 91749 905564
49 610958 871046
50 130684 115809
EOF
